10
PENJOO | q=-1 | fac-[Os(CO)3Cl3]- — σ-dative 만 (하프틱·다리 없음) | CSD: fac-Cesium trichloro-tricarbonyl-osmium(ii)
Os     6.736993     1.158753     7.873860
Cl     7.491128     1.289226     5.656323
Cl     8.880957     0.635985     8.667402
Cl     6.169201    -1.104639     7.643009
C      6.249466     0.850847     9.705759
C      5.020952     1.410830     7.047757
C      7.419950     2.953333     7.941064
O      6.063429     0.522298    10.771610
O      4.065109     1.427587     6.444051
O      7.971516     3.939181     7.893466
