14
CEHPIO | q=0 | CpTiCl3 — eta5-cyclopentadienyl + 3 Cl | CSD: Trichloro-(η5-cyclopentadienyl)-titanium(iv)
Ti     3.038091     9.403594     0.998723
Cl     3.809209     7.776134     2.161454
Cl     3.854828    11.027687     2.134050
Cl     4.469460     9.366611    -0.596370
C      0.886543     9.903259     1.641959
C      0.929422     8.527596     1.321920
C      1.256772     8.406586    -0.049803
C      1.389796     9.711582    -0.582900
C      1.169831    10.635900     0.462459
H      0.572860    10.325384     2.589233
H      0.657250     7.712915     1.982314
H      1.270293     7.484711    -0.619775
H      1.528983     9.956997    -1.628885
H      1.109762    11.712644     0.356419
