14
QEGPUN | q=0 | Me2Ga(BH4) — B-H...Ga 3c2e bridge · B is a ligand atom | CSD: Dimethyl-gallium tetrahydroborate
Ga     5.605906     4.318501     1.396318
B      6.696778     6.393146     1.564257
H      5.918294     6.013135     0.617972
H      6.774704     5.418050     2.395036
H      6.164110     7.285930     2.120712
H      7.769023     6.543259     1.097658
C      6.678418     2.902580     0.405389
H      6.154222     2.544378    -0.485732
H      6.885460     2.033224     1.036677
H      7.635160     3.329811     0.089284
C      3.770180     4.295145     2.271243
H      3.579618     5.267272     2.736535
H      3.696935     3.525752     3.045815
H      2.975991     4.105117     1.542738
