10
GUCCOX | q=-2 | [Re2Cl8]2- — Re-Re quadruple bond | CSD: 4,4'-Bipyrazolium octachloro-di-rhenium(iii)
Re    -4.362402    -3.811989    11.217542
Cl    -5.571720    -3.821630    13.097939
Cl    -4.736645    -1.612238    11.076654
Cl    -3.892278    -3.802745     9.031658
Cl    -4.729450    -6.011702    11.058041
Re    -2.065479    -3.812423    12.171981
Cl    -0.856162    -3.822326    10.291831
Cl    -1.690237    -1.612800    12.311475
Cl    -2.535822    -3.802467    14.358033
Cl    -1.697804    -6.012279    12.328847
